
Gurobi 8.1.1 (win64, Python) logging started 11/05/20 10:57:27

Academic license - for non-commercial use only
Optimize a model with 435 rows, 297 columns and 930 nonzeros
Model has 18 quadratic objective terms
Variable types: 0 continuous, 297 integer (90 binary)
Coefficient statistics:
  Matrix range     [1e+00, 1e+06]
  Objective range  [2e+02, 2e+02]
  QObjective range [4e+01, 2e+02]
  Bounds range     [1e+00, 1e+00]
  RHS range        [1e+00, 1e+06]
Found heuristic solution: objective 1.200000e+12
Presolve removed 411 rows and 273 columns
Presolve time: 0.14s

Explored 0 nodes (0 simplex iterations) in 0.23 seconds
Thread count was 1 (of 8 available processors)

Solution count 1: 1.2e+12 

Best objective 1.200000000000e+12, best bound -, gap -
Optimize a model with 870 rows, 495 columns and 1860 nonzeros
Model has 6 quadratic objective terms
Variable types: 0 continuous, 495 integer (90 binary)
Coefficient statistics:
  Matrix range     [1e+00, 1e+06]
  Objective range  [0e+00, 0e+00]
  QObjective range [2e+02, 2e+02]
  Bounds range     [1e+00, 1e+00]
  RHS range        [1e+00, 1e+06]
Found heuristic solution: objective 6.000000e+11
Presolve removed 870 rows and 495 columns
Presolve time: 0.08s
Presolve: All rows and columns removed

Explored 0 nodes (0 simplex iterations) in 0.14 seconds
Thread count was 1 (of 8 available processors)

Solution count 2: 0 6e+11 

Optimal solution found (tolerance 1.00e-04)
Best objective 0.000000000000e+00, best bound 0.000000000000e+00, gap 0.0000%
Optimize a model with 1305 rows, 693 columns and 2790 nonzeros
Model has 6 quadratic objective terms
Variable types: 0 continuous, 693 integer (90 binary)
Coefficient statistics:
  Matrix range     [1e+00, 1e+06]
  Objective range  [0e+00, 0e+00]
  QObjective range [2e+02, 2e+02]
  Bounds range     [1e+00, 1e+00]
  RHS range        [1e+00, 1e+06]

MIP start produced solution with objective 2900 (0.09s)
Loaded MIP start with objective 2900

Presolve removed 1293 rows and 681 columns
Presolve time: 0.00s

Explored 0 nodes (0 simplex iterations) in 0.09 seconds
Thread count was 1 (of 8 available processors)

Solution count 1: 2900 

Best objective 2.900000000000e+03, best bound -, gap -
Optimize a model with 1740 rows, 891 columns and 3720 nonzeros
Model has 6 quadratic objective terms
Variable types: 0 continuous, 891 integer (90 binary)
Coefficient statistics:
  Matrix range     [1e+00, 1e+06]
  Objective range  [0e+00, 0e+00]
  QObjective range [2e+02, 2e+02]
  Bounds range     [1e+00, 1e+00]
  RHS range        [1e+00, 1e+06]

MIP start produced solution with objective 2900 (0.01s)
Loaded MIP start with objective 2900

Presolve removed 1730 rows and 879 columns
Presolve time: 0.12s

Explored 0 nodes (0 simplex iterations) in 0.13 seconds
Thread count was 1 (of 8 available processors)

Solution count 1: 2900 

Best objective 2.900000000000e+03, best bound -, gap -
Optimize a model with 2175 rows, 1089 columns and 4650 nonzeros
Model has 6 quadratic objective terms
Variable types: 0 continuous, 1089 integer (90 binary)
Coefficient statistics:
  Matrix range     [1e+00, 1e+06]
  Objective range  [2e+02, 2e+02]
  QObjective range [4e+01, 4e+01]
  Bounds range     [1e+00, 1e+00]
  RHS range        [1e+00, 1e+06]

MIP start produced solution with objective 280 (0.01s)
Loaded MIP start with objective 280

Presolve removed 2166 rows and 1080 columns
Presolve time: 0.00s

Explored 0 nodes (0 simplex iterations) in 0.01 seconds
Thread count was 1 (of 8 available processors)

Solution count 1: 280 

Best objective 2.800000000000e+02, best bound -, gap -
Optimize a model with 2610 rows, 1287 columns and 5580 nonzeros
Variable types: 0 continuous, 1287 integer (90 binary)
Coefficient statistics:
  Matrix range     [1e+00, 1e+06]
  Objective range  [0e+00, 0e+00]
  Bounds range     [1e+00, 1e+00]
  RHS range        [1e+00, 1e+06]

MIP start produced solution with objective 0 (0.01s)
Loaded MIP start with objective 0


Explored 0 nodes (0 simplex iterations) in 0.07 seconds
Thread count was 1 (of 8 available processors)

Solution count 1: 0 

Optimal solution found (tolerance 1.00e-04)
Best objective 0.000000000000e+00, best bound 0.000000000000e+00, gap 0.0000%
Optimize a model with 3528 rows, 1719 columns and 7512 nonzeros
Variable types: 0 continuous, 1719 integer (90 binary)
Coefficient statistics:
  Matrix range     [1e+00, 1e+06]
  Objective range  [2e+01, 4e+06]
  Bounds range     [1e+00, 1e+00]
  RHS range        [1e+00, 1e+06]

MIP start produced solution with objective 1.30061e+07 (0.01s)
Loaded MIP start with objective 1.30061e+07

Presolve removed 3524 rows and 1715 columns
Presolve time: 0.31s
Presolved: 4 rows, 4 columns, 9 nonzeros
Found heuristic solution: objective 1.200522e+07
Variable types: 0 continuous, 4 integer (1 binary)

Root relaxation: cutoff, 2 iterations, 0.00 seconds

    Nodes    |    Current Node    |     Objective Bounds      |     Work
 Expl Unexpl |  Obj  Depth IntInf | Incumbent    BestBd   Gap | It/Node Time

     0     0     cutoff    0      1.2005e+07 1.2005e+07  0.00%     -    0s

Explored 0 nodes (2 simplex iterations) in 0.32 seconds
Thread count was 8 (of 8 available processors)

Solution count 1: 1.20052e+07 

Optimal solution found (tolerance 1.00e-04)
Best objective 1.200522000000e+07, best bound 1.200522000000e+07, gap 0.0000%
Optimize a model with 3963 rows, 1917 columns and 8442 nonzeros
Variable types: 0 continuous, 1917 integer (90 binary)
Coefficient statistics:
  Matrix range     [1e+00, 1e+06]
  Objective range  [2e+01, 5e+06]
  Bounds range     [1e+00, 1e+00]
  RHS range        [1e+00, 1e+06]

MIP start produced solution with objective 1.50052e+07 (0.01s)
Loaded MIP start with objective 1.50052e+07

Presolve removed 3959 rows and 1913 columns
Presolve time: 0.00s
Presolved: 4 rows, 4 columns, 9 nonzeros
Variable types: 0 continuous, 4 integer (1 binary)

Root relaxation: cutoff, 2 iterations, 0.00 seconds

    Nodes    |    Current Node    |     Objective Bounds      |     Work
 Expl Unexpl |  Obj  Depth IntInf | Incumbent    BestBd   Gap | It/Node Time

     0     0     cutoff    0      1.5005e+07 1.5005e+07  0.00%     -    0s

Explored 0 nodes (2 simplex iterations) in 0.02 seconds
Thread count was 8 (of 8 available processors)

Solution count 1: 1.50052e+07 

Optimal solution found (tolerance 1.00e-04)
Best objective 1.500522000000e+07, best bound 1.500522000000e+07, gap 0.0000%
Optimize a model with 3975 rows, 1917 columns and 8460 nonzeros
Variable types: 0 continuous, 1917 integer (90 binary)
Coefficient statistics:
  Matrix range     [1e+00, 1e+06]
  Objective range  [2e+01, 5e+06]
  Bounds range     [1e+00, 1e+00]
  RHS range        [1e+00, 1e+06]

MIP start did not produce a new incumbent solution
MIP start violates constraint R3963 by 3.000000000

Found heuristic solution: objective 2.580036e+08
Presolve removed 3971 rows and 1913 columns
Presolve time: 0.00s
Presolved: 4 rows, 4 columns, 9 nonzeros
Found heuristic solution: objective 9.600461e+07
Variable types: 0 continuous, 4 integer (1 binary)

Root relaxation: objective 1.500523e+07, 3 iterations, 0.00 seconds

    Nodes    |    Current Node    |     Objective Bounds      |     Work
 Expl Unexpl |  Obj  Depth IntInf | Incumbent    BestBd   Gap | It/Node Time

*    0     0               0    1.500523e+07 1.5005e+07  0.00%     -    0s

Explored 0 nodes (3 simplex iterations) in 0.19 seconds
Thread count was 8 (of 8 available processors)

Solution count 3: 1.50052e+07 9.60046e+07 9.60047e+07 
No other solutions better than 1.50052e+07

Optimal solution found (tolerance 1.00e-04)
Best objective 1.500522892969e+07, best bound 1.500522892969e+07, gap 0.0000%
Optimize a model with 435 rows, 297 columns and 930 nonzeros
Variable types: 0 continuous, 297 integer (90 binary)
Coefficient statistics:
  Matrix range     [1e+00, 1e+10]
  Objective range  [2e+01, 5e+10]
  Bounds range     [1e+00, 1e+00]
  RHS range        [1e+00, 1e+10]
Warning: Model contains large matrix coefficients
Warning: Model contains large objective coefficients
Warning: Model contains large rhs
         Consider reformulating model or setting NumericFocus parameter
         to avoid numerical issues.
Presolve removed 431 rows and 293 columns
Presolve time: 0.00s
Presolved: 4 rows, 4 columns, 9 nonzeros
Variable types: 0 continuous, 4 integer (1 binary)
Found heuristic solution: objective 1.600000e+11

Root relaxation: objective 1.500000e+11, 2 iterations, 0.00 seconds

    Nodes    |    Current Node    |     Objective Bounds      |     Work
 Expl Unexpl |  Obj  Depth IntInf | Incumbent    BestBd   Gap | It/Node Time

*    0     0               0    1.500000e+11 1.5000e+11  0.00%     -    0s

Explored 0 nodes (3 simplex iterations) in 0.22 seconds
Thread count was 8 (of 8 available processors)

Solution count 2: 1.5e+11 1.6e+11 
No other solutions better than 1.5e+11

Optimal solution found (tolerance 1.00e-04)
Warning: some integer variables take values larger than the maximum
         supported value (2000000000)
Best objective 1.500000051750e+11, best bound 1.500000051750e+11, gap 0.0000%
Optimize a model with 870 rows, 495 columns and 1860 nonzeros
Variable types: 0 continuous, 495 integer (90 binary)
Coefficient statistics:
  Matrix range     [1e+00, 1e+10]
  Objective range  [1e+02, 1e+02]
  Bounds range     [1e+00, 1e+00]
  RHS range        [1e+00, 1e+10]
Warning: Model contains large matrix coefficients
Warning: Model contains large rhs
         Consider reformulating model or setting NumericFocus parameter
         to avoid numerical issues.

MIP start produced solution with objective 0 (0.01s)
Loaded MIP start with objective 0


Explored 0 nodes (0 simplex iterations) in 0.01 seconds
Thread count was 1 (of 8 available processors)

Solution count 1: 0 

Optimal solution found (tolerance 1.00e-04)
Warning: some integer variables take values larger than the maximum
         supported value (2000000000)
Best objective 0.000000000000e+00, best bound 0.000000000000e+00, gap 0.0000%
Optimize a model with 1305 rows, 693 columns and 2790 nonzeros
Variable types: 0 continuous, 693 integer (90 binary)
Coefficient statistics:
  Matrix range     [1e+00, 1e+10]
  Objective range  [2e+01, 1e+02]
  Bounds range     [1e+00, 1e+00]
  RHS range        [1e+00, 1e+10]
Warning: Model contains large matrix coefficients
Warning: Model contains large rhs
         Consider reformulating model or setting NumericFocus parameter
         to avoid numerical issues.

MIP start produced solution with objective 5220 (0.01s)
Loaded MIP start with objective 5220

Presolve removed 1301 rows and 689 columns
Presolve time: 0.00s
Presolved: 4 rows, 4 columns, 9 nonzeros
Found heuristic solution: objective 5100.0000001
Variable types: 0 continuous, 4 integer (1 binary)

Root relaxation: objective 5.040000e+03, 2 iterations, 0.00 seconds

    Nodes    |    Current Node    |     Objective Bounds      |     Work
 Expl Unexpl |  Obj  Depth IntInf | Incumbent    BestBd   Gap | It/Node Time

*    0     0               0    5040.0000000 5040.00000  0.00%     -    0s
